 vasp.5.4.4.18Apr17-6-g9f103f2a35 (build Aug 06 2018 12:32:45) complex

 executed on                Euler date 2021.03.08  12:05:25

 INCAR:
 POTCAR:    PAW_PBE Si 05Jan2001
 POTCAR:    PAW_PBE H 15Jun2001
 POTCAR:    PAW_PBE Si 05Jan2001
   VRHFIN =Si: s2p2

   TITEL  = PAW_PBE Si 05Jan2001
   POMASS =   28.085; ZVAL   =    4.000    mass and valenz
   ENMAX  =  245.345; ENMIN  =  184.009 eV

 POTCAR:    PAW_PBE H 15Jun2001
   VRHFIN =H: ultrasoft test

   TITEL  = PAW_PBE H 15Jun2001
   POMASS =    1.000; ZVAL   =    1.000    mass and valenz
   ENMAX  =  250.000; ENMIN  =  200.000 eV

  PAW_PBE Si 05Jan2001                  :
  PAW_PBE H 15Jun2001                   :

 POSCAR: Si  H
  positions in cartesian coordinates
 exchange correlation table for  LEXCH =        8
   RHO(1)=    0.500       N(1)  =     2000
   RHO(2)=  100.500       N(2)  =     4000

 ion  position               nearest neighbor table
   1  0.333  0.667  0.150-   3 1.50   2 2.36   2 2.36   2 2.36
   2  0.667  0.333  0.112-   4 1.50   1 2.36   1 2.36   1 2.36
   3  0.333  0.667  0.229-   1 1.50
   4  0.667  0.333  0.033-   2 1.50

  LATTYP: Found a hexagonal cell.
 ALAT       =     3.8889455746
 C/A-ratio  =     4.8679268601

  Lattice vectors:

 A1 = (   3.8889457900,  -0.0000001200,   0.0000190600)
 A2 = (  -1.9444730000,   3.3679257800,  -0.0000190600)
 A3 = (   0.0000954800,  -0.0000551200,  18.9311026200)

Analysis of symmetry for initial positions (statically):
 Subroutine PRICEL returns:
 Original cell was already a primitive cell.

 Routine SETGRP: Setting up the symmetry group for a
 hexagonal supercell.

 Subroutine GETGRP returns: Found 12 space group operations
 (whereof  6 operations were pure point group operations)
 out of a pool of 24 trial point group operations.

The static configuration has the point symmetry C_3v.
 The point group associated with its full space group is D_3d.

Analysis of symmetry for dynamics (positions and initial velocities):
 Subroutine PRICEL returns:
 Original cell was already a primitive cell.

 Routine SETGRP: Setting up the symmetry group for a
 hexagonal supercell.

 Subroutine GETGRP returns: Found 12 space group operations
 (whereof  6 operations were pure point group operations)
 out of a pool of 24 trial point group operations.

The dynamic configuration has the point symmetry C_3v.
 The point group associated with its full space group is D_3d.

 Subroutine INISYM returns: Found 12 space group operations
 (whereof  6 operations are pure point group operations),
 and found     1 'primitive' translations

 KPOINTS: Automatic

Automatic generation of k-mesh.
Space group operators:
 irot       det(A)        alpha          n_x          n_y          n_z        tau_x        tau_y        tau_z
    1     1.000000     0.000000     1.000000     0.000000     0.000000     0.000000     0.000000     0.000000
    2     1.000000   120.000000    -0.000005    -0.000009    -1.000000     0.000000     0.000000     0.000000
    3     1.000000   120.000000    -0.000005    -0.000009     1.000000     0.000000     0.000000     0.000000
    4    -1.000000   180.000000     1.000000     0.000000    -0.000005     0.000000     0.000000     0.000000
    5    -1.000000   180.000000    -0.500000     0.866025     0.000005     0.000000     0.000000     0.000000
    6    -1.000000   180.000000     0.500000     0.866025    -0.000000     0.000000     0.000000     0.000000
    7    -1.000000     0.000000     1.000000     0.000000     0.000000     0.000000     0.000000     0.262381
    8    -1.000000   120.000000    -0.000005    -0.000009    -1.000000     0.000000    -0.000000     0.262381
    9    -1.000000   120.000000    -0.000005    -0.000009     1.000000     0.000001     0.000000     0.262381
   10     1.000000   180.000000     1.000000     0.000000    -0.000005     0.000001     0.000000     0.262381
   11     1.000000   180.000000    -0.500000     0.866025     0.000005     0.000000     0.000000     0.262381
   12     1.000000   180.000000     0.500000     0.866025    -0.000000     0.000000    -0.000000     0.262381

 Subroutine IBZKPT returns following result:

 Found     56 irreducible k-points:

 Following reciprocal coordinates:
            Coordinates               Weight
  0.000000  0.000000  0.000000      1.000000
  0.076923 -0.000000 -0.000000      6.000000
  0.153846 -0.000000  0.000000      6.000000
  0.230769 -0.000000 -0.000000      6.000000
  0.307692 -0.000000 -0.000000      6.000000
  0.384615  0.000000 -0.000000      6.000000
  0.461538 -0.000000 -0.000000      6.000000
  0.076923  0.076923 -0.000000      6.000000
  0.153846  0.076923 -0.000000     12.000000
  0.230769  0.076923 -0.000000     12.000000
  0.307692  0.076923 -0.000000     12.000000
  0.384615  0.076923 -0.000000     12.000000
  0.461538  0.076923  0.000000      6.000000
  0.153846  0.153846 -0.000000      6.000000
  0.230769  0.153846 -0.000000     12.000000
  0.307692  0.153846 -0.000000     12.000000
  0.384615  0.153846 -0.000000     12.000000
  0.230769  0.230769 -0.000000      6.000000
  0.307692  0.230769 -0.000000     12.000000
  0.384615  0.230769 -0.000000      6.000000
  0.307692  0.307692 -0.000000      6.000000
  0.000000 -0.000000  0.333333      2.000000
  0.076923  0.000000  0.333333      6.000000
  0.153846 -0.000000  0.333333      6.000000
  0.230769 -0.000000  0.333333      6.000000
  0.307692 -0.000000  0.333333      6.000000
  0.384615 -0.000000  0.333333      6.000000
  0.461538 -0.000000  0.333333      6.000000
 -0.461538  0.000000  0.333333      6.000000
 -0.384615 -0.000000  0.333333      6.000000
 -0.307692 -0.000000  0.333333      6.000000
 -0.230769  0.000000  0.333333      6.000000
 -0.153846 -0.000000  0.333333      6.000000
 -0.076923  0.000000  0.333333      6.000000
  0.076923  0.076923  0.333333     12.000000
  0.153846  0.076923  0.333333     12.000000
  0.230769  0.076923  0.333333     12.000000
  0.307692  0.076923  0.333333     12.000000
  0.384615  0.076923  0.333333     12.000000
  0.461538  0.076923  0.333333     12.000000
 -0.461538  0.076923  0.333333     12.000000
 -0.384615  0.076923  0.333333     12.000000
 -0.307692  0.076923  0.333333     12.000000
 -0.230769  0.076923  0.333333     12.000000
  0.153846  0.153846  0.333333     12.000000
  0.230769  0.153846  0.333333     12.000000
  0.307692  0.153846  0.333333     12.000000
  0.384615  0.153846  0.333333     12.000000
  0.461538  0.153846  0.333333     12.000000
 -0.461538  0.153846  0.333333     12.000000
 -0.384615  0.153846  0.333333     12.000000
  0.230769  0.230769  0.333333     12.000000
  0.307692  0.230769  0.333333     12.000000
  0.384615  0.230769  0.333333     12.000000
  0.461538  0.230769  0.333333     12.000000
  0.307692  0.307692  0.333333     12.000000

 Following cartesian coordinates:
            Coordinates               Weight
  0.000000  0.000000  0.000000      1.000000
  0.019780  0.011420 -0.000000      6.000000
  0.039560  0.022840 -0.000000      6.000000
  0.059340  0.034260 -0.000000      6.000000
  0.079120  0.045680 -0.000000      6.000000
  0.098900  0.057100 -0.000000      6.000000
  0.118680  0.068520 -0.000000      6.000000
  0.019780  0.034260 -0.000000      6.000000
  0.039560  0.045680 -0.000000     12.000000
  0.059340  0.057100 -0.000000     12.000000
  0.079120  0.068520 -0.000000     12.000000
  0.098900  0.079940 -0.000000     12.000000
  0.118680  0.091360 -0.000000      6.000000
  0.039560  0.068520 -0.000000      6.000000
  0.059340  0.079940 -0.000000     12.000000
  0.079120  0.091360 -0.000000     12.000000
  0.098900  0.102780 -0.000000     12.000000
  0.059340  0.102780 -0.000000      6.000000
  0.079120  0.114199 -0.000000     12.000000
  0.098900  0.125619 -0.000000      6.000000
  0.079120  0.137039 -0.000000      6.000000
 -0.000000  0.000000  0.017608      2.000000
  0.019780  0.011420  0.017608      6.000000
  0.039560  0.022840  0.017608      6.000000
  0.059340  0.034260  0.017608      6.000000
  0.079120  0.045680  0.017607      6.000000
  0.098900  0.057100  0.017607      6.000000
  0.118679  0.068520  0.017607      6.000000
 -0.118680 -0.068520  0.017608      6.000000
 -0.098900 -0.057100  0.017608      6.000000
 -0.079120 -0.045680  0.017608      6.000000
 -0.059340 -0.034260  0.017608      6.000000
 -0.039560 -0.022840  0.017608      6.000000
 -0.019780 -0.011420  0.017608      6.000000
  0.019780  0.034260  0.017608     12.000000
  0.039560  0.045680  0.017608     12.000000
  0.059340  0.057100  0.017608     12.000000
  0.079120  0.068520  0.017608     12.000000
  0.098900  0.079940  0.017607     12.000000
  0.118679  0.091360  0.017607     12.000000
 -0.118680 -0.045680  0.017608     12.000000
 -0.098900 -0.034260  0.017608     12.000000
 -0.079120 -0.022840  0.017608     12.000000
 -0.059340 -0.011420  0.017608     12.000000
  0.039560  0.068520  0.017608     12.000000
  0.059340  0.079940  0.017608     12.000000
  0.079120  0.091360  0.017608     12.000000
  0.098900  0.102780  0.017608     12.000000
  0.118679  0.114200  0.017607     12.000000
 -0.118680 -0.022840  0.017608     12.000000
 -0.098900 -0.011420  0.017608     12.000000
  0.059340  0.102780  0.017608     12.000000
  0.079120  0.114200  0.017608     12.000000
  0.098900  0.125619  0.017608     12.000000
  0.118680  0.137039  0.017608     12.000000
  0.079120  0.137039  0.017608     12.000000

 TETIRR: Found    706 inequivalent tetrahedra from     3042

 SYSTEM =  unknown system
 POSCAR =  Si  H

 Startparameter for this run:
   NWRITE =      2    write-flag & timer
   PREC   = normal    normal or accurate (medium, high low for compatibility)
   ISTART =      1    job   : 0-new  1-cont  2-samecut
   ICHARG =      0    charge: 1-file 2-atom 10-const
   ISPIN  =      1    spin polarized calculation?
   LNONCOLLINEAR =      F non collinear calculations
   LSORBIT =      F    spin-orbit coupling
   INIWAV =      1    electr: 0-lowe 1-rand  2-diag
   LASPH  =      F    aspherical Exc in radial PAW
   METAGGA=      F    non-selfconsistent MetaGGA calc.

 Electronic Relaxation 1
   ENCUT  =  550.0 eV  40.42 Ry    6.36 a.u.   7.44  7.44 36.20*2*pi/ulx,y,z
   ENINI  =  550.0     initial cutoff
   ENAUG  =  400.0 eV  augmentation charge cutoff
   NELM   =    200;   NELMIN=  2; NELMDL=  0     # of ELM steps
   EDIFF  = 0.1E-04   stopping-criterion for ELM
   LREAL  =      F    real-space projection
   NLSPLINE    = F    spline interpolate recip. space projectors
   LCOMPAT=      F    compatible to vasp.4.4
   GGA_COMPAT  = T    GGA compatible to vasp.4.4-vasp.4.6
   LMAXPAW     = -100 max onsite density
   LMAXMIX     =    2 max onsite mixed and CHGCAR
   VOSKOWN=      0    Vosko Wilk Nusair interpolation
   ROPT   =    0.00000   0.00000
 Ionic relaxation
   EDIFFG = -.1E-01   stopping-criterion for IOM
   NSW    =   2000    number of steps for IOM
   NBLOCK =      1;   KBLOCK =   2000    inner block; outer block
   IBRION =      2    ionic relax: 0-MD 1-quasi-New 2-CG
   NFREE  =      1    steps in history (QN), initial steepest desc. (CG)
   ISIF   =      3    stress and relaxation
   IWAVPR =     11    prediction:  0-non 1-charg 2-wave 3-comb
   ISYM   =      2    0-nonsym 1-usesym 2-fastsym
[...]
   0.05933979  0.05709974 -0.00000013       0.024
   0.07911972  0.06851969 -0.00000020       0.024
   0.09889965  0.07993964 -0.00000027       0.024
   0.11867959  0.09135959 -0.00000033       0.012
   0.03955986  0.06851969 -0.00000000       0.012
   0.05933979  0.07993964 -0.00000007       0.024
   0.07911972  0.09135959 -0.00000013       0.024
   0.09889966  0.10277954 -0.00000020       0.024
   0.05933979  0.10277954 -0.00000000       0.012
   0.07911972  0.11419949 -0.00000007       0.024
   0.09889966  0.12561944 -0.00000013       0.012
   0.07911973  0.13703939 -0.00000000       0.012
  -0.00000009  0.00000005  0.01760771       0.004
   0.01977984  0.01142000  0.01760764       0.012
   0.03955978  0.02283995  0.01760758       0.012
   0.05933971  0.03425990  0.01760751       0.012
   0.07911964  0.04567985  0.01760744       0.012
   0.09889957  0.05709980  0.01760738       0.012
   0.11867950  0.06851974  0.01760731       0.012
  -0.11867967 -0.06851965  0.01760811       0.012
  -0.09889974 -0.05709970  0.01760804       0.012
  -0.07911981 -0.04567975  0.01760797       0.012
  -0.05933988 -0.03425980  0.01760791       0.012
  -0.03955995 -0.02283985  0.01760784       0.012
  -0.01978002 -0.01141990  0.01760777       0.012
   0.01977985  0.03425990  0.01760771       0.024
   0.03955978  0.04567985  0.01760764       0.024
   0.05933971  0.05709979  0.01760758       0.024
   0.07911964  0.06851974  0.01760751       0.024
   0.09889957  0.07993969  0.01760744       0.024
   0.11867950  0.09135964  0.01760738       0.024
  -0.11867967 -0.04567975  0.01760817       0.024
  -0.09889974 -0.03425980  0.01760811       0.024
  -0.07911981 -0.02283985  0.01760804       0.024
  -0.05933988 -0.01141990  0.01760797       0.024
   0.03955978  0.06851974  0.01760771       0.024
   0.05933971  0.07993969  0.01760764       0.024
   0.07911964  0.09135964  0.01760758       0.024
   0.09889957  0.10277959  0.01760751       0.024
   0.11867950  0.11419954  0.01760744       0.024
  -0.11867967 -0.02283985  0.01760824       0.024
  -0.09889974 -0.01141990  0.01760817       0.024
   0.05933971  0.10277959  0.01760771       0.024
   0.07911964  0.11419954  0.01760764       0.024
   0.09889957  0.12561949  0.01760758       0.024
   0.11867950  0.13703944  0.01760751       0.024
   0.07911964  0.13703943  0.01760771       0.024

 k-points in reciprocal lattice and weights: Automatic
   0.00000000  0.00000000  0.00000000       0.002
   0.07692308 -0.00000000 -0.00000000       0.012
   0.15384615 -0.00000000  0.00000000       0.012
   0.23076923 -0.00000000 -0.00000000       0.012
   0.30769231 -0.00000000 -0.00000000       0.012
   0.38461538  0.00000000 -0.00000000       0.012
   0.46153846 -0.00000000 -0.00000000       0.012
   0.07692308  0.07692308 -0.00000000       0.012
   0.15384615  0.07692308 -0.00000000       0.024
   0.23076923  0.07692308 -0.00000000       0.024
   0.30769231  0.07692308 -0.00000000       0.024
   0.38461538  0.07692308 -0.00000000       0.024
   0.46153846  0.07692308  0.00000000       0.012
   0.15384615  0.15384615 -0.00000000       0.012
   0.23076923  0.15384615 -0.00000000       0.024
   0.30769231  0.15384615 -0.00000000       0.024
   0.38461538  0.15384615 -0.00000000       0.024
   0.23076923  0.23076923 -0.00000000       0.012
   0.30769231  0.23076923 -0.00000000       0.024
   0.38461538  0.23076923 -0.00000000       0.012
   0.30769231  0.30769231 -0.00000000       0.012
   0.00000000 -0.00000000  0.33333333       0.004
   0.07692308  0.00000000  0.33333333       0.012
   0.15384615 -0.00000000  0.33333333       0.012
   0.23076923 -0.00000000  0.33333333       0.012
   0.30769231 -0.00000000  0.33333333       0.012
   0.38461538 -0.00000000  0.33333333       0.012
   0.46153846 -0.00000000  0.33333333       0.012
  -0.46153846  0.00000000  0.33333333       0.012
  -0.38461538 -0.00000000  0.33333333       0.012
  -0.30769231 -0.00000000  0.33333333       0.012
  -0.23076923  0.00000000  0.33333333       0.012
  -0.15384615 -0.00000000  0.33333333       0.012
  -0.07692308  0.00000000  0.33333333       0.012
   0.07692308  0.07692308  0.33333333       0.024
   0.15384615  0.07692308  0.33333333       0.024
   0.23076923  0.07692308  0.33333333       0.024
   0.30769231  0.07692308  0.33333333       0.024
   0.38461538  0.07692308  0.33333333       0.024
   0.46153846  0.07692308  0.33333333       0.024
  -0.46153846  0.07692308  0.33333333       0.024
  -0.38461538  0.07692308  0.33333333       0.024
  -0.30769231  0.07692308  0.33333333       0.024
  -0.23076923  0.07692308  0.33333333       0.024
   0.15384615  0.15384615  0.33333333       0.024
   0.23076923  0.15384615  0.33333333       0.024
   0.30769231  0.15384615  0.33333333       0.024
   0.38461538  0.15384615  0.33333333       0.024
   0.46153846  0.15384615  0.33333333       0.024
  -0.46153846  0.15384615  0.33333333       0.024
  -0.38461538  0.15384615  0.33333333       0.024
   0.23076923  0.23076923  0.33333333       0.024
   0.30769231  0.23076923  0.33333333       0.024
   0.38461538  0.23076923  0.33333333       0.024
   0.46153846  0.23076923  0.33333333       0.024
   0.30769231  0.30769231  0.33333333       0.024

 position of ions in fractional coordinates (direct lattice)
   0.33333276  0.66666666  0.15017088
   0.66666666  0.33333274  0.11221055
   0.33333018  0.66666666  0.22943707
   0.66666666  0.33333020  0.03294125

 position of ions in cartesian coordinates  (Angst):
   0.00001205  2.24527551  2.84289399
   1.94448470  1.12263366  2.12427579
   0.00000959  2.24527114  4.34349036
   1.94448207  1.12262948  0.62362054

 k-point  1 :   0.0000 0.0000 0.0000  plane waves:    7291
 k-point  2 :   0.0769-0.0000-0.0000  plane waves:    7281
 k-point  3 :   0.1538-0.0000 0.0000  plane waves:    7289
 k-point  4 :   0.2308-0.0000-0.0000  plane waves:    7269
 k-point  5 :   0.3077-0.0000-0.0000  plane waves:    7279
 k-point  6 :   0.3846 0.0000-0.0000  plane waves:    7261
 k-point  7 :   0.4615-0.0000-0.0000  plane waves:    7240
 k-point  8 :   0.0769 0.0769-0.0000  plane waves:    7279
 k-point  9 :   0.1538 0.0769-0.0000  plane waves:    7298
 k-point 10 :   0.2308 0.0769-0.0000  plane waves:    7280
 k-point 11 :   0.3077 0.0769-0.0000  plane waves:    7282
 k-point 12 :   0.3846 0.0769-0.0000  plane waves:    7243
 k-point 13 :   0.4615 0.0769 0.0000  plane waves:    7222
 k-point 14 :   0.1538 0.1538-0.0000  plane waves:    7291
 k-point 15 :   0.2308 0.1538-0.0000  plane waves:    7275
 k-point 16 :   0.3077 0.1538-0.0000  plane waves:    7250
 k-point 17 :   0.3846 0.1538-0.0000  plane waves:    7229
 k-point 18 :   0.2308 0.2308-0.0000  plane waves:    7239
 k-point 19 :   0.3077 0.2308-0.0000  plane waves:    7255
 k-point 20 :   0.3846 0.2308-0.0000  plane waves:    7240
 k-point 21 :   0.3077 0.3077-0.0000  plane waves:    7236
 k-point 22 :   0.0000-0.0000 0.3333  plane waves:    7308
 k-point 23 :   0.0769 0.0000 0.3333  plane waves:    7306
 k-point 24 :   0.1538-0.0000 0.3333  plane waves:    7300
 k-point 25 :   0.2308-0.0000 0.3333  plane waves:    7288
 k-point 26 :   0.3077-0.0000 0.3333  plane waves:    7273
 k-point 27 :   0.3846-0.0000 0.3333  plane waves:    7259
 k-point 28 :   0.4615-0.0000 0.3333  plane waves:    7239
 k-point 29 :  -0.4615 0.0000 0.3333  plane waves:    7239
 k-point 30 :  -0.3846-0.0000 0.3333  plane waves:    7259
 k-point 31 :  -0.3077-0.0000 0.3333  plane waves:    7273
 k-point 32 :  -0.2308 0.0000 0.3333  plane waves:    7288
 k-point 33 :  -0.1538-0.0000 0.3333  plane waves:    7300
 k-point 34 :  -0.0769 0.0000 0.3333  plane waves:    7306
 k-point 35 :   0.0769 0.0769 0.3333  plane waves:    7298
 k-point 36 :   0.1538 0.0769 0.3333  plane waves:    7297
 k-point 37 :   0.2308 0.0769 0.3333  plane waves:    7283
 k-point 38 :   0.3077 0.0769 0.3333  plane waves:    7263
 k-point 39 :   0.3846 0.0769 0.3333  plane waves:    7240
 k-point 40 :   0.4615 0.0769 0.3333  plane waves:    7233
 k-point 41 :  -0.4615 0.0769 0.3333  plane waves:    7240
 k-point 42 :  -0.3846 0.0769 0.3333  plane waves:    7263
 k-point 43 :  -0.3077 0.0769 0.3333  plane waves:    7283
 k-point 44 :  -0.2308 0.0769 0.3333  plane waves:    7297
 k-point 45 :   0.1538 0.1538 0.3333  plane waves:    7283
 k-point 46 :   0.2308 0.1538 0.3333  plane waves:    7273
 k-point 47 :   0.3077 0.1538 0.3333  plane waves:    7242
 k-point 48 :   0.3846 0.1538 0.3333  plane waves:    7231
 k-point 49 :   0.4615 0.1538 0.3333  plane waves:    7231
 k-point 50 :  -0.4615 0.1538 0.3333  plane waves:    7242
 k-point 51 :  -0.3846 0.1538 0.3333  plane waves:    7272
 k-point 52 :   0.2308 0.2308 0.3333  plane waves:    7265
 k-point 53 :   0.3077 0.2308 0.3333  plane waves:    7245
 k-point 54 :   0.3846 0.2308 0.3333  plane waves:    7223
 k-point 55 :   0.4615 0.2308 0.3333  plane waves:    7245
 k-point 56 :   0.3077 0.3077 0.3333  plane waves:    7215

 maximum and minimum number of plane-waves per node :       934      888

 maximum number of plane-waves:      7308
 maximum index in each direction:
   IXMAX=    7   IYMAX=    7   IZMAX=   36
   IXMIN=   -7   IYMIN=   -7   IZMIN=  -36

 parallel 3D FFT for wavefunctions:
    minimum data exchange during FFTs selected (reduces bandwidth)
 parallel 3D FFT for charge:
    minimum data exchange during FFTs selected (reduces bandwidth)

 Broyden mixing: mesh for mixing (old mesh)
   NGX = 15   NGY = 15   NGZ = 73
  (NGX  = 48   NGY  = 48   NGZ  =224)
  gives a total of  16425 points

 charge density for first step will be calculated from the start-wavefunctions

 Maximum index for augmentation-charges          452 (set IRDMAX)

 initial charge from wavefunction
 First call to EWALD:  gamma=   0.282
 Maximum number of real-space cells 5x 5x 1
 Maximum number of reciprocal cells 2x 2x 7

--------------------------------------- Iteration      1(   1)  ---------------------------------------

 BZINTS: Fermi energy: -3.318092; 10.000000 electrons
         Band energy: -78.404902;  BLOECHL correction:  0.000000

 eigenvalue-minimisations  :  1456
 total energy-change (2. order) :-0.1749059E+02  (-0.9728881E-07)
 number of electron      10.0000000 magnetization
 augmentation part       -0.4133402 magnetization

 Broyden mixing:
  rms(total) = 0.76620E-04    rms(broyden)= 0.76619E-04
  rms(prec ) = 0.86410E-04
  weight for this iteration     100.00

 Free energy of the ion-electron system (eV)
  alpha Z        PSCENC =         0.87532127
  Ewald energy   TEWEN  =       519.38871497
  -Hartree energ DENC   =      -712.46714814
  -exchange      EXHF   =         0.00000000
  -V(xc)+E(xc)   XCENC  =       -12.89542020
  PAW double counting   =       966.01420749     -931.10942487
  entropy T*S    EENTRO =         0.00000000
  eigenvalues    EBANDS =       -78.40490167
  atomic energy  EATOM  =       231.10806605
  Solvation  Ediel_sol  =         0.00000000
  free energy    TOTEN  =       -17.49058511 eV

  energy without entropy =      -17.49058511  energy(sigma->0) =      -17.49058511

--------------------------------------- Iteration      1(   2)  ---------------------------------------

 BZINTS: Fermi energy: -3.318080; 10.000000 electrons
         Band energy: -78.404373;  BLOECHL correction:  0.000000

 eigenvalue-minimisations  :  1124
 total energy-change (2. order) :-0.3633204E-08  (-0.6645870E-08)
 number of electron      10.0000000 magnetization
 augmentation part       -0.4133402 magnetization

 Free energy of the ion-electron system (eV)
  alpha Z        PSCENC =         0.87532127
  Ewald energy   TEWEN  =       519.38871497
  -Hartree energ DENC   =      -712.46763401
  -exchange      EXHF   =         0.00000000
  -V(xc)+E(xc)   XCENC  =       -12.89545038
  PAW double counting   =       966.02437485     -931.11960503
  entropy T*S    EENTRO =         0.00000000
  eigenvalues    EBANDS =       -78.40437284
  atomic energy  EATOM  =       231.10806605
  Solvation  Ediel_sol  =         0.00000000
  free energy    TOTEN  =       -17.49058511 eV

  energy without entropy =      -17.49058511  energy(sigma->0) =      -17.49058511

 average (electrostatic) potential at core
  the test charge radii are     0.9892  0.5201
  (the norm of the test charge is              1.0000)
       1 -91.7631       2 -91.7628       3 -39.3842       4 -39.3841

 E-fermi :  -3.3181     XC(G=0):  -2.5412     alpha+bet : -2.1573

 k-point     1 :       0.0000    0.0000    0.0000
  band No.  band energies     occupation
      1     -13.6816      2.00000
      2      -9.1133      2.00000
      3      -5.8541      2.00000
      4      -3.3716      2.00000
      5      -3.3715      2.00000
      6      -1.0403      0.00000
      7       0.5585      0.00000
      8       0.5585      0.00000
      9       0.8425      0.00000
     10       1.3549      0.00000

[...]

 k-point    56 :       0.3077    0.3077    0.3333
  band No.  band energies     occupation
      1     -11.0829      2.00000
      2     -10.5304      2.00000
      3      -6.6335      2.00000
      4      -6.3994      2.00000
      5      -6.2005      2.00000
      6       0.7046      0.00000
      7       1.2951      0.00000
      8       1.4753      0.00000
      9       3.0323      0.00000
     10       3.4266      0.00000

 soft charge-density along one line, spin component           1
         0         1         2         3         4         5         6         7         8         9
 total charge-density along one line

------------------------ aborting loop because EDIFF is reached ----------------------------------------

  FORCE on cell =-STRESS in cart. coord.  units (eV):
  Direction    XX          YY          ZZ          XY          YZ          ZX
  Alpha Z     0.87532     0.87532     0.87532
  Ewald     666.64062   666.64026  -813.89214    -0.00032    -0.00428     0.00741
  Hartree   691.55393   691.55385  -670.63694    -0.00007    -0.00391     0.00678
  E(xc)     -31.06895   -31.06895   -31.33497    -0.00000    -0.00001     0.00001
  Local   -1464.16051 -1464.16024  1380.06035     0.00023     0.00844    -0.01461
  n-local    70.37480    72.42706    74.50310    -2.45042     0.32034     0.58849
  augment   -11.17967   -11.17966   -11.37910     0.00001     0.00002    -0.00003
  Kinetic    74.59625    77.29051    71.81712    -1.45666     0.00267    -0.08060
  Fock        0.00000     0.00000     0.00000     0.00000     0.00000     0.00000
  Total       0.00496     0.00496     0.01275    -0.00000    -0.00000     0.00000
  in kB       0.03206     0.03206     0.08237    -0.00000    -0.00000     0.00000

 VOLUME and BASIS-vectors are now :
  energy-cutoff  :      550.00
  volume of cell :      247.95
      direct lattice vectors                 reciprocal lattice vectors
     3.888945790 -0.000000120  0.000019060     0.257139099  0.148459339 -0.000000865
    -1.944473000  3.367925780 -0.000019060     0.000000009  0.296918662  0.000000865
     0.000095480 -0.000055120 18.931102620    -0.000000259  0.000000149  0.052823125

  length of vectors
     3.888945790  3.888945784 18.931102620     0.296918662  0.296918662  0.052823125

 FORCES acting on ions
    electron-ion (+dipol)            ewald-force                    non-local-force                 convergence-correction
   0.596E-03 -.273E-03 -.337E+02   -.372E-03 0.285E-03 0.349E+02   -.574E-05 0.331E-05 -.114E+01   0.870E-09 -.516E-09 0.570E-03
   -.596E-03 0.418E-03 0.337E+02   0.435E-03 -.179E-03 -.349E+02   0.574E-05 -.331E-05 0.114E+01   -.871E-09 0.489E-09 -.570E-03
   0.962E-03 -.106E-03 -.567E+02   -.236E-03 0.653E-04 0.596E+02   -.148E-04 0.852E-05 -.293E+01   0.338E-08 0.650E-09 0.201E-03
   -.630E-03 0.810E-03 0.567E+02   0.174E-03 -.170E-03 -.596E+02   0.148E-04 -.852E-05 0.293E+01   -.145E-08 0.342E-08 -.201E-03
   0.332E-03 0.850E-03 0.297E-02   0.460E-15 -.358E-15 0.711E-14   0.130E-16 0.207E-16 -.888E-15   0.193E-08 0.404E-08 0.279E-07

 POSITION                                       TOTAL-FORCE (eV/Angst)
      0.00001      2.24528      2.84289         0.000000     -0.000000      0.001393
      1.94448      1.12263      2.12428        -0.000000      0.000000     -0.001393
      0.00001      2.24527      4.34349         0.000000     -0.000000      0.007809
      1.94448      1.12263      0.62362        -0.000000      0.000000     -0.007809
    total drift:                                0.000332      0.000850      0.002972

  FREE ENERGIE OF THE ION-ELECTRON SYSTEM (eV)
  free  energy   TOTEN  =       -17.49058511 eV

  energy  without entropy=      -17.49058511  energy(sigma->0) =      -17.49058511

 reached required accuracy - stopping structural energy minimisation
 writing wavefunctions
 BZINTS: Fermi energy: -3.318080; 10.000000 electrons
         Band energy: -78.404373;  BLOECHL correction:  0.000000