 vasp.5.4.4.18Apr17-6-g9f103f2a35 (build Aug 06 2018 12:32:45) complex

 executed on                Euler date 2021.08.30  16:33:55

 INCAR:
 POTCAR:    PAW_PBE Si 05Jan2001
 POTCAR:    PAW_PBE H 15Jun2001

 POTCAR:    PAW_PBE Si 05Jan2001
   VRHFIN =Si: s2p2

   TITEL  = PAW_PBE Si 05Jan2001
   POMASS =   28.085; ZVAL   =    4.000    mass and valenz
   ENMAX  =  245.345; ENMIN  =  184.009 eV

 POTCAR:    PAW_PBE H 15Jun2001
   VRHFIN =H: ultrasoft test

   TITEL  = PAW_PBE H 15Jun2001
   POMASS =    1.000; ZVAL   =    1.000    mass and valenz
   ENMAX  =  250.000; ENMIN  =  200.000 eV

  PAW_PBE Si 05Jan2001                  :
  PAW_PBE H 15Jun2001                   :

 POSCAR: Si  H
  positions in direct lattice
  velocities in cartesian coordinates
 exchange correlation table for  LEXCH =        8
   RHO(1)=    0.500       N(1)  =     2000
   RHO(2)=  100.500       N(2)  =     4000

 ion  position               nearest neighbor table
   1  0.333  0.667  0.150-   3 1.50   2 2.36   2 2.36   2 2.36
   2  0.667  0.333  0.112-   4 1.50   1 2.36   1 2.36   1 2.36
   3  0.333  0.667  0.229-   1 1.50
   4  0.667  0.333  0.033-   2 1.50

IMPORTANT INFORMATION: All symmetrisations will be switched off!
NOSYMM: (Re-)initialisation of all symmetry stuff for point group C_1.

 KPOINTS: Automatic

Automatic generation of k-mesh.
Space group operators:
 irot       det(A)        alpha          n_x          n_y          n_z        tau_x        tau_y        tau_z
    1     1.000000     0.000000     1.000000     0.000000     0.000000     0.000000     0.000000     0.000000

 Subroutine IBZKPT returns following result:

 Found    254 irreducible k-points:

 Following reciprocal coordinates:
            Coordinates               Weight
  0.000000  0.000000  0.000000      1.000000
  0.076923 -0.000000 -0.000000      2.000000
  0.153846 -0.000000  0.000000      2.000000
  0.230769 -0.000000 -0.000000      2.000000
  0.307692 -0.000000 -0.000000      2.000000
  0.384615  0.000000 -0.000000      2.000000
  0.461538 -0.000000 -0.000000      2.000000
  0.000000  0.076923 -0.000000      2.000000
  0.076923  0.076923 -0.000000      2.000000
  0.153846  0.076923 -0.000000      2.000000
  0.230769  0.076923 -0.000000      2.000000
  0.307692  0.076923 -0.000000      2.000000
  0.384615  0.076923 -0.000000      2.000000
  0.461538  0.076923  0.000000      2.000000
 -0.461538  0.076923  0.000000      2.000000
 -0.384615  0.076923 -0.000000      2.000000
 -0.307692  0.076923  0.000000      2.000000
 -0.230769  0.076923  0.000000      2.000000
 -0.153846  0.076923  0.000000      2.000000
 -0.076923  0.076923 -0.000000      2.000000
  0.000000  0.153846 -0.000000      2.000000
  0.076923  0.153846 -0.000000      2.000000
  0.153846  0.153846 -0.000000      2.000000
  0.230769  0.153846 -0.000000      2.000000
  0.307692  0.153846 -0.000000      2.000000
  0.384615  0.153846 -0.000000      2.000000
  0.461538  0.153846 -0.000000      2.000000
 -0.461538  0.153846  0.000000      2.000000
 -0.384615  0.153846  0.000000      2.000000
 -0.307692  0.153846  0.000000      2.000000
 -0.230769  0.153846  0.000000      2.000000
 -0.153846  0.153846  0.000000      2.000000
 -0.076923  0.153846 -0.000000      2.000000
  0.000000  0.230769 -0.000000      2.000000
  0.076923  0.230769  0.000000      2.000000
  0.153846  0.230769 -0.000000      2.000000
  0.230769  0.230769 -0.000000      2.000000
  0.307692  0.230769 -0.000000      2.000000
  0.384615  0.230769 -0.000000      2.000000
  0.461538  0.230769 -0.000000      2.000000
 -0.461538  0.230769  0.000000      2.000000
 -0.384615  0.230769  0.000000      2.000000
 -0.307692  0.230769  0.000000      2.000000
 -0.230769  0.230769  0.000000      2.000000
 -0.153846  0.230769  0.000000      2.000000
 -0.076923  0.230769 -0.000000      2.000000
  0.000000  0.307692 -0.000000      2.000000
  0.076923  0.307692 -0.000000      2.000000
  0.153846  0.307692 -0.000000      2.000000
  0.230769  0.307692 -0.000000      2.000000
  0.307692  0.307692 -0.000000      2.000000
  0.384615  0.307692 -0.000000      2.000000
  0.461538  0.307692 -0.000000      2.000000
 -0.461538  0.307692  0.000000      2.000000
 -0.384615  0.307692  0.000000      2.000000
 -0.307692  0.307692  0.000000      2.000000
 -0.230769  0.307692 -0.000000      2.000000
 -0.153846  0.307692 -0.000000      2.000000
 -0.076923  0.307692 -0.000000      2.000000
  0.000000  0.384615  0.000000      2.000000
[...]
 -0.153846 -0.153846  0.333333      2.000000
 -0.076923 -0.153846  0.333333      2.000000
  0.000000 -0.076923  0.333333      2.000000
  0.076923 -0.076923  0.333333      2.000000
  0.153846 -0.076923  0.333333      2.000000
  0.230769 -0.076923  0.333333      2.000000
  0.307692 -0.076923  0.333333      2.000000
  0.384615 -0.076923  0.333333      2.000000
  0.461538 -0.076923  0.333333      2.000000
 -0.461538 -0.076923  0.333333      2.000000
 -0.384615 -0.076923  0.333333      2.000000
 -0.307692 -0.076923  0.333333      2.000000
 -0.230769 -0.076923  0.333333      2.000000
 -0.153846 -0.076923  0.333333      2.000000
 -0.076923 -0.076923  0.333333      2.000000

 Following cartesian coordinates:
            Coordinates               Weight
  0.000000  0.000000  0.000000      1.000000
  0.019780  0.011420 -0.000000      2.000000
  0.039560  0.022840 -0.000000      2.000000
  0.059340  0.034260 -0.000000      2.000000
  0.079120  0.045680 -0.000000      2.000000
  0.098900  0.057100 -0.000000      2.000000
  0.118680  0.068520 -0.000000      2.000000
  0.000000  0.022840  0.000000      2.000000
  0.019780  0.034260 -0.000000      2.000000
  0.039560  0.045680 -0.000000      2.000000
  0.059340  0.057100 -0.000000      2.000000
  0.079120  0.068520 -0.000000      2.000000
  0.098900  0.079940 -0.000000      2.000000
  0.118680  0.091360 -0.000000      2.000000
 -0.118680 -0.045680  0.000000      2.000000
 -0.098900 -0.034260  0.000000      2.000000
 -0.079120 -0.022840  0.000000      2.000000
 -0.059340 -0.011420  0.000000      2.000000
 -0.039560 -0.000000  0.000000      2.000000
 -0.019780  0.011420  0.000000      2.000000
  0.000000  0.045680  0.000000      2.000000
  0.019780  0.057100  0.000000      2.000000
  0.039560  0.068520 -0.000000      2.000000
  0.059340  0.079940 -0.000000      2.000000
  0.079120  0.091360 -0.000000      2.000000
  0.098900  0.102780 -0.000000      2.000000
  0.118680  0.114199 -0.000000      2.000000
 -0.118680 -0.022840  0.000001      2.000000
 -0.098900 -0.011420  0.000000      2.000000
 -0.079120 -0.000000  0.000000      2.000000
 -0.059340  0.011420  0.000000      2.000000
 -0.039560  0.022840  0.000000      2.000000
 -0.019780  0.034260  0.000000      2.000000
  0.000000  0.068520  0.000000      2.000000
  0.019780  0.079940  0.000000      2.000000
  0.039560  0.091360  0.000000      2.000000
  0.059340  0.102780 -0.000000      2.000000
  0.079120  0.114199 -0.000000      2.000000
  0.098900  0.125619 -0.000000      2.000000
  0.118680  0.137039 -0.000000      2.000000
 -0.118680 -0.000000  0.000001      2.000000
 -0.098900  0.011420  0.000001      2.000000
 -0.079120  0.022840  0.000000      2.000000
 -0.059340  0.034260  0.000000      2.000000
 -0.039560  0.045680  0.000000      2.000000
 -0.019780  0.057100  0.000000      2.000000
  0.000000  0.091360  0.000000      2.000000
  0.019780  0.102780  0.000000      2.000000
  0.039560  0.114199  0.000000      2.000000
  0.059340  0.125619  0.000000      2.000000
  0.079120  0.137039 -0.000000      2.000000
  0.098900  0.148459 -0.000000      2.000000
  0.118680  0.159879 -0.000000      2.000000
 -0.118680  0.022840  0.000001      2.000000
 -0.098900  0.034260  0.000001      2.000000
 -0.079120  0.045680  0.000001      2.000000
 -0.059340  0.057100  0.000000      2.000000
 -0.039560  0.068520  0.000000      2.000000
 -0.019780  0.079940  0.000000      2.000000
  0.000000  0.114199  0.000000      2.000000
[...]
 -0.039560 -0.068520  0.017608      2.000000
 -0.019780 -0.057100  0.017608      2.000000
 -0.000000 -0.022840  0.017608      2.000000
  0.019780 -0.011420  0.017608      2.000000
  0.039560  0.000000  0.017608      2.000000
  0.059340  0.011420  0.017607      2.000000
  0.079120  0.022840  0.017607      2.000000
  0.098900  0.034260  0.017607      2.000000
  0.118679  0.045680  0.017607      2.000000
 -0.118680 -0.091360  0.017608      2.000000
 -0.098900 -0.079940  0.017608      2.000000
 -0.079120 -0.068520  0.017608      2.000000
 -0.059340 -0.057100  0.017608      2.000000
 -0.039560 -0.045680  0.017608      2.000000
 -0.019780 -0.034260  0.017608      2.000000

 TETIRR: Found   1518 inequivalent tetrahedra from     3042

 Subroutine IBZKPT_HF returns following result:

 Found    507 k-points in 1st BZ
 the following    507 k-points will be used (e.g. in the exchange kernel)
 Following reciprocal coordinates:   # in IRBZ
  0.000000  0.000000  0.000000    0.00197239   1 t-inv F
  0.076923 -0.000000 -0.000000    0.00197239   2 t-inv F
  0.153846 -0.000000  0.000000    0.00197239   3 t-inv F
  0.230769 -0.000000 -0.000000    0.00197239   4 t-inv F
  0.307692 -0.000000 -0.000000    0.00197239   5 t-inv F
  0.384615  0.000000 -0.000000    0.00197239   6 t-inv F
  0.461538 -0.000000 -0.000000    0.00197239   7 t-inv F
  0.000000  0.076923 -0.000000    0.00197239   8 t-inv F
  0.076923  0.076923 -0.000000    0.00197239   9 t-inv F
  0.153846  0.076923 -0.000000    0.00197239  10 t-inv F
  0.230769  0.076923 -0.000000    0.00197239  11 t-inv F
  0.307692  0.076923 -0.000000    0.00197239  12 t-inv F
  0.384615  0.076923 -0.000000    0.00197239  13 t-inv F
  0.461538  0.076923  0.000000    0.00197239  14 t-inv F
 -0.461538  0.076923  0.000000    0.00197239  15 t-inv F
 -0.384615  0.076923 -0.000000    0.00197239  16 t-inv F
 -0.307692  0.076923  0.000000    0.00197239  17 t-inv F
 -0.230769  0.076923  0.000000    0.00197239  18 t-inv F
 -0.153846  0.076923  0.000000    0.00197239  19 t-inv F
 -0.076923  0.076923 -0.000000    0.00197239  20 t-inv F
  0.000000  0.153846 -0.000000    0.00197239  21 t-inv F
  0.076923  0.153846 -0.000000    0.00197239  22 t-inv F
  0.153846  0.153846 -0.000000    0.00197239  23 t-inv F
  0.230769  0.153846 -0.000000    0.00197239  24 t-inv F
  0.307692  0.153846 -0.000000    0.00197239  25 t-inv F
  0.384615  0.153846 -0.000000    0.00197239  26 t-inv F
  0.461538  0.153846 -0.000000    0.00197239  27 t-inv F
 -0.461538  0.153846  0.000000    0.00197239  28 t-inv F
 -0.384615  0.153846  0.000000    0.00197239  29 t-inv F
 -0.307692  0.153846  0.000000    0.00197239  30 t-inv F
 -0.230769  0.153846  0.000000    0.00197239  31 t-inv F
 -0.153846  0.153846  0.000000    0.00197239  32 t-inv F
 -0.076923  0.153846 -0.000000    0.00197239  33 t-inv F
  0.000000  0.230769 -0.000000    0.00197239  34 t-inv F
  0.076923  0.230769  0.000000    0.00197239  35 t-inv F
  0.153846  0.230769 -0.000000    0.00197239  36 t-inv F
  0.230769  0.230769 -0.000000    0.00197239  37 t-inv F
  0.307692  0.230769 -0.000000    0.00197239  38 t-inv F
  0.384615  0.230769 -0.000000    0.00197239  39 t-inv F
  0.461538  0.230769 -0.000000    0.00197239  40 t-inv F
 -0.461538  0.230769  0.000000    0.00197239  41 t-inv F
[...]
   -.297E-03 0.868E-04 0.337E+02   0.435E-03 -.179E-03 -.349E+02   0.160E-04 0.102E-06 0.114E+01   -.111E-03 0.640E-04 -.317E-03
   0.192E-03 -.472E-04 -.567E+02   -.236E-03 0.653E-04 0.596E+02   -.275E-05 0.140E-04 -.293E+01   0.252E-04 -.143E-04 -.286E-04
   -.136E-03 0.142E-03 0.567E+02   0.174E-03 -.170E-03 -.596E+02   0.137E-04 0.427E-05 0.293E+01   -.252E-04 0.143E-04 0.294E-04
   -.188E-04 -.314E-04 0.200E-02   0.460E-15 -.358E-15 0.711E-14   0.189E-04 0.315E-04 -.199E-02   -.648E-08 -.678E-07 0.109E-04

 POSITION                                       TOTAL-FORCE (eV/Angst)
      0.00001      2.24528      2.84289        -0.000048      0.000021      0.000848
      1.94448      1.12263      2.12428         0.000043     -0.000029     -0.001776
      0.00001      2.24527      4.34349        -0.000022      0.000018      0.008231
      1.94448      1.12263      0.62362         0.000026     -0.000010     -0.007304
    total drift:                                0.000000      0.000000      0.000017

  FREE ENERGIE OF THE ION-ELECTRON SYSTEM (eV)
  free  energy   TOTEN  =       -17.49058449 eV

  energy  without entropy=      -17.49058449  energy(sigma->0) =      -17.49058449

 Linear response reoptimize wavefunctions
 Linear response G [H, r] |phi>, progress :
  Direction:   1

----------------------------------------- Iteration    1(   1)  ---------------------------------------

  free energy    TOTEN  =       -40.83448877 eV

[...]

 Linear response G [H, r] |phi>, progress :
  Direction:   2

[...]

 Linear response G [H, r] |phi>, progress :
  Direction:   3

[...]

  free energy    TOTEN  =       -36.36059871 eV

[...]

 Linear response to external field (no local field effect), progress :
  Direction:   1

[...]

 Free energy of the ion-electron system (eV)
  -Hartree energ DENC   =         0.00000000
  -V(xc)+E(xc)   XCENC  =         0.00000000
  PAW double counting   =         0.00000000        0.00000000
  entropy T*S    EENTRO =         0.00000000
  eigenvalues    EBANDS =        -1.23325956
  free energy    TOTEN  =        -1.23325956 eV

  energy without entropy =       -1.23325956

[...]

 change of polarisation eV/A/(eV/A) component  1 :     2.543     0.000     0.000
 dielectric tensor                  component  1 :     2.856     0.000     0.000

[...]

 Linear response to external field (no local field effect), progress :
  Direction:   3

[...]

 HEAD OF MICROSCOPIC STATIC DIELECTRIC TENSOR (INDEPENDENT PARTICLE, excluding Hartree and local field effects)
           2.855717     0.000003     0.000007
           0.000002     2.855717    -0.000004
           0.000007    -0.000003     1.802098

 Linear response to external field, progress :
  Direction:   1

[...]

 PIEZOELECTRIC TENSOR FIELD DIRECTION 1  (e Angst)
    -0.00016  0.00041 -0.00002           (  0.00000  0.00000  0.00000)
     0.00041  0.00022 -0.00005           (  0.00000 -0.00000 -0.00000)
    -0.00002 -0.00005  0.00004           (  0.00000 -0.00000  0.00000)

 PIEZOELECTRIC TENSOR FIELD DIRECTION 1  (C/m^2)
    -0.00001  0.00003 -0.00000
     0.00003  0.00001 -0.00000
    -0.00000 -0.00000  0.00000

      POSITION         DIRECTION 1           BORN EFFECTIVE CHARGE    (rigid.aug.   ionic)
      0.00001      2.24528      2.84289     0.39255  0.00000 -0.00002 (  0.22619  4.00000)
      1.94448      1.12263      2.12428     0.39240 -0.00001  0.00002 (  0.22618  4.00000)
      0.00001      2.24527      4.34349    -0.39641 -0.00001  0.00002 ( -0.01952  1.00000)
      1.94448      1.12263      0.62362    -0.39634  0.00000 -0.00002 ( -0.01951  1.00000)
    total drift (improves with k-points):  -0.00779 -0.00001  0.00000

[...]

 Linear response to external field, progress :
  Direction:   3

[...]

 change of polarisation eV/A/(eV/A) component  3 :     0.000    -0.000     0.327
 dielectric tensor                  component  3 :     0.000    -0.000     1.239

 PIEZOELECTRIC TENSOR FIELD DIRECTION 3  (e Angst)
     0.00005 -0.00001 -0.00005           ( -0.00000 -0.00000  0.00000)
    -0.00001 -0.00004  0.00012           ( -0.00000 -0.00000 -0.00000)
    -0.00005  0.00012  0.00002           (  0.00000 -0.00000 -0.00000)

 PIEZOELECTRIC TENSOR FIELD DIRECTION 3  (C/m^2)
     0.00000 -0.00000 -0.00000
    -0.00000 -0.00000  0.00001
    -0.00000  0.00001  0.00000

      POSITION         DIRECTION 3           BORN EFFECTIVE CHARGE    (rigid.aug.   ionic)
      0.00001      2.24528      2.84289    -0.00000  0.00002  0.14398 (  0.22619  4.00000)
      1.94448      1.12263      2.12428     0.00001 -0.00002  0.14400 (  0.22618  4.00000)
      0.00001      2.24527      4.34349    -0.00000  0.00000 -0.14349 ( -0.01952  1.00000)
      1.94448      1.12263      0.62362    -0.00000 -0.00000 -0.14351 ( -0.01951  1.00000)
    total drift (improves with k-points):  -0.00000 -0.00000  0.00098

 MACROSCOPIC STATIC DIELECTRIC TENSOR (including local field effects in DFT)
           2.771681     0.000002     0.000008
           0.000002     2.771681    -0.000005
           0.000008    -0.000005     1.238842

 Linear response:
   Degrees of freedom DOF   =           12
 Linear response progress:
  Degree of freedom:   1/ 12

[...]

 BZINTS: Fermi energy: -3.315574; 10.000000 electrons
         Band energy: -78.394716;  BLOECHL correction:  0.000000
 BZINTS: Fermi energy: -3.315571; 10.000000 electrons
         Band energy: -78.394716;  BLOECHL correction:  0.000000

[...]

 INTERNAL STRAIN TENSOR  FOR ION    1  DIRECTION 1   (eV/Angst):
     0.00065 -8.35084 -6.78354
    -7.94601 -0.00065 -0.00005
    -6.45788 -0.00004 -0.00034

 POSITION                   FORCE-CONSTANT FOR ION    1 DIRECTION 1 (eV/Angst/Angst)
      0.00001      2.24528      2.84289       -14.131905     -0.000133     -0.000263
      1.94448      1.12263      2.12428        13.184034      0.000007      0.000051
      0.00001      2.24527      4.34349         1.295636      0.000092      0.000095
      1.94448      1.12263      0.62362        -0.347765      0.000034      0.000117
    total drift:                               -0.000000      0.000000     -0.000000

 BORN EFFECTIVE CHARGE FOR ION    1 DIRECTION 1 :   0.392  -0.000   0.000
                   rigid augmentation           :   0.226   0.000   0.000
                   ionic contribution           :   4.000   0.000   0.000
                   Berry contribution           :  -3.834  -0.000   0.000

 Linear response progress:
  Degree of freedom:   2/ 12

[...]

 Linear response progress:
  Degree of freedom:  12/ 12

[...]

----------------------------------------- Iteration   15(   7)  ---------------------------------------

 BZINTS: Fermi energy: -3.316029; 10.000000 electrons
         Band energy: -78.411164;  BLOECHL correction:  0.000000
 BZINTS: Fermi energy: -3.319569; 10.000000 electrons
         Band energy: -78.378267;  BLOECHL correction:  0.000000

 Broyden mixing:
  rms(total) = 0.31009E-02    rms(broyden)= 0.31008E-02
  rms(prec ) = 0.58439E-02
  weight for this iteration     100.00

 eigenvalues of (default mixing * dielectric matrix)
  average eigenvalue GAMMA=   2.0044
  2.7396  2.7396  1.0187  1.3967  2.1275

 Free energy of the ion-electron system (eV)
  -Hartree energ DENC   =        -0.00536118
  -V(xc)+E(xc)   XCENC  =         0.00059618
  PAW double counting   =         0.06120949       -0.06122088
  entropy T*S    EENTRO =         0.00000000
  eigenvalues    EBANDS =        -0.01376395
  free energy    TOTEN  =        -0.01854033 eV

  energy without entropy =       -0.01854033

[...]

 k-point 254 :      -0.0769   -0.0769    0.3333
  band No.  band energies     occupation
      1      -0.1268      0.00000
      2      -1.5481      0.00000
      3      -0.5263      0.00000
      4       0.4406      0.00000
      5       0.4257      0.00000
      6       0.3672      0.00000
      7       0.2925      0.00000
      8       1.1027      0.00000
      9      -0.0067      0.00000
     10      -0.8634      0.00000

------------------------ aborting loop because EDIFF is reached ----------------------------------------

 INTERNAL STRAIN TENSOR  FOR ION    4  DIRECTION 3   (eV/Angst):
     0.17457  0.00000  0.00003
     0.00001  0.17457  0.00018
     0.00003  0.00019 24.69636

 POSITION                   FORCE-CONSTANT FOR ION    4 DIRECTION 3 (eV/Angst/Angst)
      0.00001      2.24528      2.84289        -0.000010     -0.000079      0.692648
      1.94448      1.12263      2.12428         0.000014      0.000082     15.638423
      0.00001      2.24527      4.34349        -0.000008     -0.000004     -0.110850
      1.94448      1.12263      0.62362         0.000004      0.000001    -16.220220
    total drift:                               -0.000000     -0.000000     -0.000000

 BORN EFFECTIVE CHARGE FOR ION    4 DIRECTION 3 :  -0.000  -0.000  -0.152
                   rigid augmentation           :   0.000   0.000  -0.020
                   ionic contribution           :   0.000   0.000   1.000
                   Berry contribution           :  -0.000  -0.000  -1.133

 MACROSCOPIC STATIC DIELECTRIC TENSOR (including local field effects in DFT)
           2.771681     0.000002     0.000008
           0.000002     2.771681    -0.000005
           0.000008    -0.000005     1.238842

 PIEZOELECTRIC TENSOR (including local field effects)  for field in x, y, z        (e  Angst)
          XX          YY          ZZ          XY          YZ          ZX
  x    -0.00016     0.00022     0.00004     0.00041    -0.00005    -0.00002
  y    -0.00079     0.00077    -0.00011     0.00001    -0.00005     0.00008
  z     0.00005    -0.00004     0.00002    -0.00001     0.00012    -0.00005

 PIEZOELECTRIC TENSOR (including local field effects)  for field in x, y, z        (C/m^2)
          XX          YY          ZZ          XY          YZ          ZX
  x    -0.00001     0.00001     0.00000     0.00003    -0.00000    -0.00000
  y    -0.00005     0.00005    -0.00001     0.00000    -0.00000     0.00001
  z     0.00000    -0.00000     0.00000    -0.00000     0.00001    -0.00000

 BORN EFFECTIVE CHARGES (including local field effects) (in e, cummulative output)
 ion    1
    1     0.39450     0.00000    -0.00002
    2    -0.00001     0.39423     0.00005
    3    -0.00000     0.00002     0.14373
 ion    2
    1     0.39435    -0.00001     0.00002
    2     0.00001     0.39464    -0.00005
    3     0.00001    -0.00002     0.14375
 ion    3
    1    -0.39446    -0.00000     0.00002
    2     0.00003    -0.39440    -0.00005
    3    -0.00000     0.00000    -0.14373
 ion    4
    1    -0.39439     0.00001    -0.00002
    2    -0.00002    -0.39446     0.00006
    3    -0.00000    -0.00000    -0.14375

 INTERNAL STRAIN TENSOR FOR ION    1 for displacements in x,y,z  (eV/Angst):
          X           Y           Z          XY          YZ          ZX
  x     0.00065    -0.00065    -0.00034    -7.94601    -0.00004    -6.78354
  y    -8.14752     8.14703    -0.00027     0.35084    -6.45837    -0.00012
  z    -6.16258    -6.16275    17.37907    -0.00008    -0.00084     0.00059

[...]

 INTERNAL STRAIN TENSOR FOR ION    4 for displacements in x,y,z  (eV/Angst):
          X           Y           Z          XY          YZ          ZX
  x     0.00002     0.00013    -0.00010     0.09637    -0.00000     2.87975
  y     0.09650    -0.09652     0.00009     0.00017     2.87988    -0.00001
  z     0.17457     0.17457    24.69636     0.00001     0.00019     0.00003

 SECOND DERIVATIVES (NOT SYMMETRIZED)
               1X          1Y          1Z          2X          2Y          2Z          3X          3Y          3Z          4X          4Y          4Z
  1X   -14.131905   -0.000133   -0.000263   13.184034    0.000007    0.000051    1.295636    0.000092    0.000095   -0.347765    0.000034    0.000117
  1Y    -0.000403  -14.135481   -0.000081    0.000021   13.185376    0.000444    0.000192    1.296466   -0.000171    0.000190   -0.346361   -0.000192
  1Z    -0.000265    0.000214  -22.879005    0.000030   -0.000027    6.604894    0.000105   -0.000117   15.545658    0.000129   -0.000070    0.728453
  2X    13.182047   -0.000061    0.000062  -14.126384   -0.000367   -0.000370   -0.349805    0.000238    0.000140    1.294142    0.000190    0.000168
  2Y     0.000002   13.183469    0.000398   -0.000163  -14.130169   -0.000039    0.000045   -0.348340   -0.000201    0.000116    1.295039   -0.000157
  2Z     0.000009   -0.000001    6.606385   -0.000257    0.000011  -22.879462    0.000106    0.000001    0.730711    0.000142   -0.000010   15.542366
  3X     1.306199   -0.000120   -0.000089   -0.357787    0.000020    0.000005   -1.382933    0.000073    0.000059    0.434522    0.000027    0.000025
  3Y     0.000024    1.305772    0.000269   -0.000054   -0.357930    0.000039    0.000037   -1.382351   -0.000050   -0.000007    0.434509   -0.000257
  3Z     0.000002   -0.000077   15.641772   -0.000070    0.000052    0.690687    0.000082    0.000024  -16.219756   -0.000014    0.000001   -0.112704
  4X    -0.358080   -0.000039    0.000002    1.306419    0.000001   -0.000026    0.434269   -0.000040   -0.000003   -1.382609    0.000078    0.000026
  4Y     0.000003   -0.358260    0.000055   -0.000112    1.306051    0.000321    0.000013    0.434174   -0.000182    0.000096   -1.381966   -0.000194
  4Z    -0.000010   -0.000079    0.692648    0.000014    0.000082   15.638423   -0.000008   -0.000004   -0.110850    0.000004    0.000001  -16.220220

 Eigenvectors and eigenvalues of the dynamical matrix

   1 f  =   64.289200 THz   403.940959 2PiTHz 2144.456831 cm-1   265.878857 meV
             X         Y         Z           dx          dy          dz
      0.000012  2.245276  2.842894    -0.000001    0.000002   -0.130854
      1.944485  1.122634  2.124276    -0.000001    0.000001   -0.130923
      0.000010  2.245271  4.343490    -0.000003    0.000006    0.694619
      1.944482  1.122629  0.623621     0.000000    0.000008    0.695155

[...]

  10 f/i=    0.001730 THz     0.010872 2PiTHz    0.057719 cm-1     0.007156 meV
             X         Y         Z           dx          dy          dz
      0.000012  2.245276  2.842894    -0.077331   -0.690414    0.007851
      1.944485  1.122634  2.124276    -0.077347   -0.690535    0.007849
      0.000010  2.245271  4.343490    -0.014594   -0.130300    0.001481
      1.944482  1.122629  0.623621    -0.014605   -0.130366    0.001481

[...]

 Eigenvectors after division by SQRT(mass)

 Eigenvectors and eigenvalues of the dynamical matrix

[...]

   9 f  =   11.522523 THz    72.398147 2PiTHz  384.349981 cm-1    47.653341 meV
             X         Y         Z           dx          dy          dz
      0.000012  2.245276  2.842894    -0.000004    0.000001    0.131277
      1.944485  1.122634  2.124276     0.000004   -0.000001   -0.131340
      0.000010  2.245271  4.343490    -0.000004    0.000019    0.125525
      1.944482  1.122629  0.623621     0.000003   -0.000016   -0.125559

[...]

  12 f/i=    0.021086 THz     0.132490 2PiTHz    0.703369 cm-1     0.087207 meV
             X         Y         Z           dx          dy          dz
      0.000012  2.245276  2.842894    -0.001164    0.001621    0.131137
      1.944485  1.122634  2.124276    -0.001164    0.001621    0.131077
      0.000010  2.245271  4.343490    -0.001142    0.001614    0.130918
      1.944482  1.122629  0.623621    -0.001144    0.001616    0.130830

 MACROSCOPIC STATIC DIELECTRIC TENSOR IONIC CONTRIBUTION
           0.239717    -0.000028     0.000000
          -0.000028     0.239504    -0.000000
           0.000000    -0.000000     0.001850

 ELASTIC MODULI CONTR FROM IONIC RELAXATION (kBar)
 Direction    XX          YY          ZZ          XY          YZ          ZX
 XX         -66.8928      1.1574    -31.6989      1.4488    -39.4184      0.0026
 YY           1.1574    -66.8871    -31.6969     -1.4480     39.4061      0.0017
 ZZ         -31.6989    -31.6969   -513.4389     -0.0011     -0.0021     -0.0003
 XY           1.4488     -1.4480     -0.0011    -32.4454      1.5940    -39.8054
 YZ         -39.4184     39.4061     -0.0021      1.5940   -100.2812     -0.0035
 ZX           0.0026      0.0017     -0.0003    -39.8054     -0.0035   -103.2668

 PIEZOELECTRIC TENSOR IONIC CONTR  for field in x, y, z        (C/m^2)
          XX          YY          ZZ          XY          YZ          ZX
  x     0.00001    -0.00001    -0.00000     0.00002    -0.00000     0.00002
  y     0.00005    -0.00004     0.00001    -0.00001     0.00001    -0.00001
  z    -0.00000     0.00000    -0.00000     0.00000    -0.00000     0.00000

 writing wavefunctions
 BZINTS: Fermi energy: -3.317800; 10.000000 electrons
         Band energy: -78.394716;  BLOECHL correction:  0.000000