 vasp.5.4.4.18Apr17-6-g9f103f2a35 (build Aug 06 2018 12:32:45) complex

 executed on                Euler date 2021.10.05  16:07:55

 INCAR:
 POTCAR:    PAW_PBE Si 05Jan2001
 POTCAR:    PAW_PBE H 15Jun2001
 POTCAR:    PAW_PBE Si 05Jan2001
   VRHFIN =Si: s2p2

   TITEL  = PAW_PBE Si 05Jan2001
   POMASS =   28.085; ZVAL   =    4.000    mass and valenz
   ENMAX  =  245.345; ENMIN  =  184.009 eV

 POTCAR:    PAW_PBE H 15Jun2001
   VRHFIN =H: ultrasoft test

   TITEL  = PAW_PBE H 15Jun2001
   POMASS =    1.000; ZVAL   =    1.000    mass and valenz
   ENMAX  =  250.000; ENMIN  =  200.000 eV

  PAW_PBE Si 05Jan2001                  :
  PAW_PBE H 15Jun2001                   :

 POSCAR: Si  H
  positions in direct lattice
  velocities in cartesian coordinates
 exchange correlation table for  LEXCH =        8
   RHO(1)=    0.500       N(1)  =     2000
   RHO(2)=  100.500       N(2)  =     4000

 ion  position               nearest neighbor table
   1  0.333  0.667  0.479-   3 1.50   2 2.36   2 2.36   2 2.36
   2  0.667  0.333  0.358-   4 1.50   1 2.36   1 2.36   1 2.36
   3  0.333  0.667  0.732-   1 1.50
   4  0.667  0.333  0.105-   2 1.50

  LATTYP: Found a simple monoclinic cell.
 ALAT       =     3.8889455746
 B/A-ratio  =     1.5251184433
 C/A-ratio  =     2.6457513333
 COS(beta)  =    -0.9449111752

  Lattice vectors:

 A1 = (  -1.9444727900,  -3.3679256600,   0.0000000000)
 A2 = (  -0.0000954800,   0.0000551200,  -5.9311026200)
 A3 = (   7.7778913700,   6.7358512000,   0.0000190600)

Analysis of symmetry for initial positions (statically):
 Subroutine PRICEL returns:
 Original cell was already a primitive cell.

 Routine SETGRP: Setting up the symmetry group for a
 simple monoclinic supercell.

 Subroutine GETGRP returns: Found  2 space group operations
 (whereof  1 operations were pure point group operations)
 out of a pool of  4 trial point group operations.

The static configuration has the point symmetry C_1 .
 The point group associated with its full space group is S_2 .

Analysis of symmetry for dynamics (positions and initial velocities):
 Subroutine PRICEL returns:
 Original cell was already a primitive cell.

 Routine SETGRP: Setting up the symmetry group for a
 simple monoclinic supercell.

 Subroutine GETGRP returns: Found  2 space group operations
 (whereof  1 operations were pure point group operations)
 out of a pool of  4 trial point group operations.

The dynamic configuration has the point symmetry C_1 .
 The point group associated with its full space group is S_2 .

 Subroutine INISYM returns: Found  2 space group operations
 (whereof  1 operations are pure point group operations),
 and found     1 'primitive' translations

 KPOINTS: Automatic

Automatic generation of k-mesh.
Space group operators:
 irot       det(A)        alpha          n_x          n_y          n_z        tau_x        tau_y        tau_z
    1     1.000000     0.000001     1.000000     0.000000     0.000000     0.000000     0.000000     0.000000
    2    -1.000000     0.000001     1.000000     0.000000     0.000000     1.999990     1.000009    -0.162522

 Subroutine IBZKPT returns following result:

 Found    254 irreducible k-points:

 Following reciprocal coordinates:
            Coordinates               Weight
  0.000000  0.000000  0.000000      1.000000
  0.076923  0.000000 -0.000000      2.000000
  0.153846  0.000000 -0.000000      2.000000
  0.230769  0.000000 -0.000000      2.000000
  0.307692  0.000000 -0.000000      2.000000
  0.384615  0.000000 -0.000000      2.000000
  0.461538  0.000000 -0.000000      2.000000
  0.000000  0.076923  0.000000      2.000000
  0.076923  0.076923 -0.000000      2.000000
  0.153846  0.076923 -0.000000      2.000000
  0.230769  0.076923 -0.000000      2.000000
  0.307692  0.076923 -0.000000      2.000000
  0.384615  0.076923 -0.000000      2.000000
  0.461538  0.076923 -0.000000      2.000000
 -0.461538  0.076923  0.000000      2.000000
 -0.384615  0.076923  0.000000      2.000000
 -0.307692  0.076923  0.000000      2.000000
 -0.230769  0.076923  0.000000      2.000000
 -0.153846  0.076923  0.000000      2.000000
 -0.076923  0.076923  0.000000      2.000000
  0.000000  0.153846  0.000000      2.000000
  0.076923  0.153846  0.000000      2.000000
  0.153846  0.153846 -0.000000      2.000000
  0.230769  0.153846 -0.000000      2.000000
  0.307692  0.153846 -0.000000      2.000000
  0.384615  0.153846 -0.000000      2.000000
  0.461538  0.153846 -0.000000      2.000000
 -0.461538  0.153846  0.000000      2.000000
 -0.384615  0.153846  0.000000      2.000000
 -0.307692  0.153846  0.000000      2.000000
 -0.230769  0.153846  0.000000      2.000000
 -0.153846  0.153846  0.000000      2.000000
 -0.076923  0.153846  0.000000      2.000000
  0.000000  0.230769  0.000000      2.000000
  0.076923  0.230769  0.000000      2.000000
  0.153846  0.230769  0.000000      2.000000
  0.230769  0.230769 -0.000000      2.000000
  0.307692  0.230769  0.000000      2.000000
  0.384615  0.230769 -0.000000      2.000000
  0.461538  0.230769 -0.000000      2.000000
 -0.461538  0.230769  0.000000      2.000000
 -0.384615  0.230769  0.000000      2.000000
 -0.307692  0.230769  0.000000      2.000000
 -0.230769  0.230769  0.000000      2.000000
 -0.153846  0.230769  0.000000      2.000000
 -0.076923  0.230769  0.000000      2.000000
  0.000000  0.307692  0.000000      2.000000
  0.076923  0.307692  0.000000      2.000000
  0.153846  0.307692 -0.000000      2.000000
  0.230769  0.307692 -0.000000      2.000000
  0.307692  0.307692 -0.000000      2.000000
  0.384615  0.307692 -0.000000      2.000000
  0.461538  0.307692 -0.000000      2.000000
 -0.461538  0.307692  0.000000      2.000000
 -0.384615  0.307692  0.000000      2.000000
 -0.307692  0.307692  0.000000      2.000000
 -0.230769  0.307692  0.000000      2.000000
 -0.153846  0.307692  0.000000      2.000000
 -0.076923  0.307692  0.000000      2.000000
  0.000000  0.384615  0.000000      2.000000
[...]
 -0.153846 -0.153846  0.333333      2.000000
 -0.076923 -0.153846  0.333333      2.000000
  0.000000 -0.076923  0.333333      2.000000
  0.076923 -0.076923  0.333333      2.000000
  0.153846 -0.076923  0.333333      2.000000
  0.230769 -0.076923  0.333333      2.000000
  0.307692 -0.076923  0.333333      2.000000
  0.384615 -0.076923  0.333333      2.000000
  0.461538 -0.076923  0.333333      2.000000
 -0.461538 -0.076923  0.333333      2.000000
 -0.384615 -0.076923  0.333333      2.000000
 -0.307692 -0.076923  0.333333      2.000000
 -0.230769 -0.076923  0.333333      2.000000
 -0.153846 -0.076923  0.333333      2.000000
 -0.076923 -0.076923  0.333333      2.000000

 Following cartesian coordinates:
            Coordinates               Weight
  0.000000  0.000000  0.000000      1.000000
  0.019780  0.011420 -0.000000      2.000000
  0.039560  0.022840 -0.000000      2.000000
  0.059340  0.034260 -0.000001      2.000000
  0.079120  0.045680 -0.000001      2.000000
  0.098900  0.057100 -0.000001      2.000000
  0.118680  0.068520 -0.000001      2.000000
  0.000000  0.022840  0.000000      2.000000
  0.019780  0.034260 -0.000000      2.000000
  0.039560  0.045680 -0.000000      2.000000
  0.059340  0.057100 -0.000000      2.000000
  0.079120  0.068520 -0.000001      2.000000
  0.098900  0.079940 -0.000001      2.000000
  0.118680  0.091360 -0.000001      2.000000
 -0.118680 -0.045680  0.000001      2.000000
 -0.098900 -0.034260  0.000001      2.000000
 -0.079120 -0.022840  0.000001      2.000000
 -0.059340 -0.011420  0.000001      2.000000
 -0.039560 -0.000000  0.000001      2.000000
 -0.019780  0.011420  0.000000      2.000000
  0.000000  0.045680  0.000000      2.000000
  0.019780  0.057100  0.000000      2.000000
  0.039560  0.068520 -0.000000      2.000000
  0.059340  0.079940 -0.000000      2.000000
  0.079120  0.091360 -0.000000      2.000000
  0.098900  0.102780 -0.000001      2.000000
  0.118680  0.114199 -0.000001      2.000000
 -0.118680 -0.022840  0.000002      2.000000
 -0.098900 -0.011420  0.000001      2.000000
 -0.079120 -0.000000  0.000001      2.000000
 -0.059340  0.011420  0.000001      2.000000
 -0.039560  0.022840  0.000001      2.000000
 -0.019780  0.034260  0.000001      2.000000
  0.000000  0.068520  0.000001      2.000000
  0.019780  0.079940  0.000000      2.000000
  0.039560  0.091360  0.000000      2.000000
  0.059340  0.102780 -0.000000      2.000000
  0.079120  0.114199 -0.000000      2.000000
  0.098900  0.125619 -0.000000      2.000000
  0.118680  0.137039 -0.000001      2.000000
 -0.118680 -0.000000  0.000002      2.000000
 -0.098900  0.011420  0.000002      2.000000
 -0.079120  0.022840  0.000001      2.000000
 -0.059340  0.034260  0.000001      2.000000
 -0.039560  0.045680  0.000001      2.000000
 -0.019780  0.057100  0.000001      2.000000
  0.000000  0.091360  0.000001      2.000000
  0.019780  0.102780  0.000001      2.000000
  0.039560  0.114199  0.000000      2.000000
  0.059340  0.125619  0.000000      2.000000
  0.079120  0.137039 -0.000000      2.000000
  0.098900  0.148459 -0.000000      2.000000
  0.118680  0.159879 -0.000000      2.000000
 -0.118680  0.022840  0.000002      2.000000
 -0.098900  0.034260  0.000002      2.000000
 -0.079120  0.045680  0.000002      2.000000
 -0.059340  0.057100  0.000001      2.000000
 -0.039560  0.068520  0.000001      2.000000
 -0.019780  0.079940  0.000001      2.000000
  0.000000  0.114199  0.000001      2.000000
[...]
 -0.039560 -0.068520  0.056201      2.000000
 -0.019780 -0.057100  0.056201      2.000000
 -0.000000 -0.022840  0.056201      2.000000
  0.019780 -0.011420  0.056200      2.000000
  0.039560  0.000000  0.056200      2.000000
  0.059340  0.011420  0.056200      2.000000
  0.079119  0.022840  0.056200      2.000000
  0.098899  0.034260  0.056200      2.000000
  0.118679  0.045680  0.056199      2.000000
 -0.118680 -0.091359  0.056202      2.000000
 -0.098900 -0.079939  0.056202      2.000000
 -0.079120 -0.068520  0.056202      2.000000
 -0.059340 -0.057100  0.056201      2.000000
 -0.039560 -0.045680  0.056201      2.000000
 -0.019780 -0.034260  0.056201      2.000000

 TETIRR: Found   1518 inequivalent tetrahedra from     3042

 SYSTEM =  unknown system
 POSCAR =  Si  H

 Startparameter for this run:
   NWRITE =      2    write-flag & timer
   PREC   = normal    normal or accurate (medium, high low for compatibility)
   ISTART =      0    job   : 0-new  1-cont  2-samecut
   ICHARG =      2    charge: 1-file 2-atom 10-const
   ISPIN  =      1    spin polarized calculation?
   LNONCOLLINEAR =      F non collinear calculations
   LSORBIT =      F    spin-orbit coupling
   INIWAV =      1    electr: 0-lowe 1-rand  2-diag
   LASPH  =      F    aspherical Exc in radial PAW
   METAGGA=      F    non-selfconsistent MetaGGA calc.

 Electronic Relaxation 1
   ENCUT  =  550.0 eV  40.42 Ry    6.36 a.u.   7.44  7.44 11.34*2*pi/ulx,y,z
   ENINI  =  550.0     initial cutoff
   ENAUG  =  400.0 eV  augmentation charge cutoff
   NELM   =    200;   NELMIN=  2; NELMDL= -5     # of ELM steps
   EDIFF  = 0.1E-04   stopping-criterion for ELM
   LREAL  =      F    real-space projection
   NLSPLINE    = F    spline interpolate recip. space projectors
[...]
 k-point 15 :  -0.4615 0.0769 0.0000  plane waves:    2269
 k-point 16 :  -0.3846 0.0769 0.0000  plane waves:    2280
 k-point 17 :  -0.3077 0.0769 0.0000  plane waves:    2286
 k-point 18 :  -0.2308 0.0769 0.0000  plane waves:    2290
 k-point 19 :  -0.1538 0.0769 0.0000  plane waves:    2301
 k-point 20 :  -0.0769 0.0769 0.0000  plane waves:    2287
 k-point 21 :   0.0000 0.1538 0.0000  plane waves:    2291
 k-point 22 :   0.0769 0.1538 0.0000  plane waves:    2290
 k-point 23 :   0.1538 0.1538-0.0000  plane waves:    2291
 k-point 24 :   0.2308 0.1538-0.0000  plane waves:    2283
 k-point 25 :   0.3077 0.1538-0.0000  plane waves:    2264
 k-point 26 :   0.3846 0.1538-0.0000  plane waves:    2269
 k-point 27 :   0.4615 0.1538-0.0000  plane waves:    2269
 k-point 28 :  -0.4615 0.1538 0.0000  plane waves:    2264
 k-point 29 :  -0.3846 0.1538 0.0000  plane waves:    2283
 k-point 30 :  -0.3077 0.1538 0.0000  plane waves:    2291
 k-point 31 :  -0.2308 0.1538 0.0000  plane waves:    2290
 k-point 32 :  -0.1538 0.1538 0.0000  plane waves:    2291
 k-point 33 :  -0.0769 0.1538 0.0000  plane waves:    2301
 k-point 34 :   0.0000 0.2308 0.0000  plane waves:    2287
 k-point 35 :   0.0769 0.2308 0.0000  plane waves:    2286
 k-point 36 :   0.1538 0.2308 0.0000  plane waves:    2283
 k-point 37 :   0.2308 0.2308-0.0000  plane waves:    2277
 k-point 38 :   0.3077 0.2308 0.0000  plane waves:    2265
 k-point 39 :   0.3846 0.2308-0.0000  plane waves:    2256
 k-point 40 :   0.4615 0.2308-0.0000  plane waves:    2265
 k-point 41 :  -0.4615 0.2308 0.0000  plane waves:    2277
 k-point 42 :  -0.3846 0.2308 0.0000  plane waves:    2283
 k-point 43 :  -0.3077 0.2308 0.0000  plane waves:    2286
 k-point 44 :  -0.2308 0.2308 0.0000  plane waves:    2287
 k-point 45 :  -0.1538 0.2308 0.0000  plane waves:    2290
 k-point 46 :  -0.0769 0.2308 0.0000  plane waves:    2290
 k-point 47 :   0.0000 0.3077 0.0000  plane waves:    2289
 k-point 48 :   0.0769 0.3077 0.0000  plane waves:    2280
 k-point 49 :   0.1538 0.3077-0.0000  plane waves:    2264
 k-point 50 :   0.2308 0.3077-0.0000  plane waves:    2265
 k-point 51 :   0.3077 0.3077-0.0000  plane waves:    2258
 k-point 52 :   0.3846 0.3077-0.0000  plane waves:    2258
 k-point 53 :   0.4615 0.3077-0.0000  plane waves:    2265
 k-point 54 :  -0.4615 0.3077 0.0000  plane waves:    2264
 k-point 55 :  -0.3846 0.3077 0.0000  plane waves:    2280
 k-point 56 :  -0.3077 0.3077 0.0000  plane waves:    2289
 k-point 57 :  -0.2308 0.3077 0.0000  plane waves:    2286
 k-point 58 :  -0.1538 0.3077 0.0000  plane waves:    2291
 k-point 59 :  -0.0769 0.3077 0.0000  plane waves:    2286
 k-point 60 :   0.0000 0.3846 0.0000  plane waves:    2285
[...]
 k-point 85 :  -0.0769 0.4615 0.0000  plane waves:    2269
 k-point 86 :   0.0000-0.0000 0.3333  plane waves:    2321
 k-point 87 :   0.0769 0.0000 0.3333  plane waves:    2284
 k-point 88 :   0.1538 0.0000 0.3333  plane waves:    2289
 k-point 89 :   0.2308 0.0000 0.3333  plane waves:    2279
 k-point 90 :   0.3077 0.0000 0.3333  plane waves:    2273
 k-point 91 :   0.3846 0.0000 0.3333  plane waves:    2270
 k-point 92 :   0.4615 0.0000 0.3333  plane waves:    2264
 k-point 93 :  -0.4615-0.0000 0.3333  plane waves:    2264
 k-point 94 :  -0.3846-0.0000 0.3333  plane waves:    2270
 k-point 95 :  -0.3077-0.0000 0.3333  plane waves:    2273
 k-point 96 :  -0.2308-0.0000 0.3333  plane waves:    2279
 k-point 97 :  -0.1538-0.0000 0.3333  plane waves:    2289
 k-point 98 :  -0.0769-0.0000 0.3333  plane waves:    2284
 k-point 99 :   0.0000 0.0769 0.3333  plane waves:    2284
 k-point ** :   0.0769 0.0769 0.3333  plane waves:    2283
 k-point ** :   0.1538 0.0769 0.3333  plane waves:    2279
 k-point ** :   0.2308 0.0769 0.3333  plane waves:    2280
 k-point ** :   0.3077 0.0769 0.3333  plane waves:    2274
 k-point ** :   0.3846 0.0769 0.3333  plane waves:    2267
 k-point ** :   0.4615 0.0769 0.3333  plane waves:    2263
 k-point ** :  -0.4615 0.0769 0.3333  plane waves:    2267
 k-point ** :  -0.3846 0.0769 0.3333  plane waves:    2274
 k-point ** :  -0.3077 0.0769 0.3333  plane waves:    2280
 k-point ** :  -0.2308 0.0769 0.3333  plane waves:    2279
 k-point ** :  -0.1538 0.0769 0.3333  plane waves:    2283
 k-point ** :  -0.0769 0.0769 0.3333  plane waves:    2284
 k-point ** :   0.0000 0.1538 0.3333  plane waves:    2289
 k-point ** :   0.0769 0.1538 0.3333  plane waves:    2279
 k-point ** :   0.1538 0.1538 0.3333  plane waves:    2276
 k-point ** :   0.2308 0.1538 0.3333  plane waves:    2277
 k-point ** :   0.3077 0.1538 0.3333  plane waves:    2266
 k-point ** :   0.3846 0.1538 0.3333  plane waves:    2268
 k-point ** :   0.4615 0.1538 0.3333  plane waves:    2268
 k-point ** :  -0.4615 0.1538 0.3333  plane waves:    2266
 k-point ** :  -0.3846 0.1538 0.3333  plane waves:    2277
 k-point ** :  -0.3077 0.1538 0.3333  plane waves:    2276
 k-point ** :  -0.2308 0.1538 0.3333  plane waves:    2279
 k-point ** :  -0.1538 0.1538 0.3333  plane waves:    2289
 k-point ** :  -0.0769 0.1538 0.3333  plane waves:    2283
 k-point ** :   0.0000 0.2308 0.3333  plane waves:    2279
 k-point ** :   0.0769 0.2308 0.3333  plane waves:    2280
 k-point ** :   0.1538 0.2308 0.3333  plane waves:    2277
 k-point ** :   0.2308 0.2308 0.3333  plane waves:    2274
 k-point ** :   0.3077 0.2308 0.3333  plane waves:    2267
 k-point ** :   0.3846 0.2308 0.3333  plane waves:    2268
 k-point ** :   0.4615 0.2308 0.3333  plane waves:    2267
 k-point ** :  -0.4615 0.2308 0.3333  plane waves:    2274
 k-point ** :  -0.3846 0.2308 0.3333  plane waves:    2277
 k-point ** :  -0.3077 0.2308 0.3333  plane waves:    2280
 k-point ** :  -0.2308 0.2308 0.3333  plane waves:    2279
 k-point ** :  -0.1538 0.2308 0.3333  plane waves:    2279
 k-point ** :  -0.0769 0.2308 0.3333  plane waves:    2279
 k-point ** :   0.0000 0.3077 0.3333  plane waves:    2273
 k-point ** :   0.0769 0.3077 0.3333  plane waves:    2274
 k-point ** :   0.1538 0.3077 0.3333  plane waves:    2266
 k-point ** :   0.2308 0.3077 0.3333  plane waves:    2267
 k-point ** :   0.3077 0.3077 0.3333  plane waves:    2270
 k-point ** :   0.3846 0.3077 0.3333  plane waves:    2270
 k-point ** :   0.4615 0.3077 0.3333  plane waves:    2267
 k-point ** :  -0.4615 0.3077 0.3333  plane waves:    2266
 k-point ** :  -0.3846 0.3077 0.3333  plane waves:    2274
 k-point ** :  -0.3077 0.3077 0.3333  plane waves:    2273
 k-point ** :  -0.2308 0.3077 0.3333  plane waves:    2280
 k-point ** :  -0.1538 0.3077 0.3333  plane waves:    2276
 k-point ** :  -0.0769 0.3077 0.3333  plane waves:    2280
 k-point ** :   0.0000 0.3846 0.3333  plane waves:    2270
 k-point ** :   0.0769 0.3846 0.3333  plane waves:    2267
 k-point ** :   0.1538 0.3846 0.3333  plane waves:    2268
 k-point ** :   0.2308 0.3846 0.3333  plane waves:    2268
 k-point ** :   0.3077 0.3846 0.3333  plane waves:    2270
 k-point ** :   0.3846 0.3846 0.3333  plane waves:    2268
 k-point ** :   0.4615 0.3846 0.3333  plane waves:    2268
 k-point ** :  -0.4615 0.3846 0.3333  plane waves:    2267
 k-point ** :  -0.3846 0.3846 0.3333  plane waves:    2270
[...]
 k-point ** :  -0.1538-0.1538 0.3333  plane waves:    2276
 k-point ** :  -0.0769-0.1538 0.3333  plane waves:    2279
 k-point ** :   0.0000-0.0769 0.3333  plane waves:    2284
 k-point ** :   0.0769-0.0769 0.3333  plane waves:    2284
 k-point ** :   0.1538-0.0769 0.3333  plane waves:    2283
 k-point ** :   0.2308-0.0769 0.3333  plane waves:    2279
 k-point ** :   0.3077-0.0769 0.3333  plane waves:    2280
 k-point ** :   0.3846-0.0769 0.3333  plane waves:    2274
 k-point ** :   0.4615-0.0769 0.3333  plane waves:    2267
 k-point ** :  -0.4615-0.0769 0.3333  plane waves:    2263
 k-point ** :  -0.3846-0.0769 0.3333  plane waves:    2267
 k-point ** :  -0.3077-0.0769 0.3333  plane waves:    2274
 k-point ** :  -0.2308-0.0769 0.3333  plane waves:    2280
 k-point ** :  -0.1538-0.0769 0.3333  plane waves:    2279
 k-point ** :  -0.0769-0.0769 0.3333  plane waves:    2283

 maximum and minimum number of plane-waves per node :       303      265

 maximum number of plane-waves:      2321
 maximum index in each direction:
   IXMAX=    7   IYMAX=    7   IZMAX=   11
   IXMIN=   -7   IYMIN=   -7   IZMIN=  -11

 parallel 3D FFT for wavefunctions:
    minimum data exchange during FFTs selected (reduces bandwidth)
 parallel 3D FFT for charge:
    minimum data exchange during FFTs selected (reduces bandwidth)

 Broyden mixing: mesh for mixing (old mesh)
   NGX = 15   NGY = 15   NGZ = 23
  (NGX  = 48   NGY  = 48   NGZ  = 72)
  gives a total of   5175 points

 initial charge density was supplied:
 charge density of overlapping atoms calculated
 number of electron      10.0000000 magnetization
 keeping initial charge density in first step

 Maximum index for augmentation-charges          464 (set IRDMAX)

 First call to EWALD:  gamma=   0.415
 Maximum number of real-space cells 3x 3x 2
 Maximum number of reciprocal cells 3x 3x 4

--------------------------------------- Iteration      1(   1)  ---------------------------------------

 BZINTS: Fermi energy:  6.603951; 10.000000 electrons
         Band energy: -13.778977;  BLOECHL correction: -0.135684

 eigenvalue-minimisations  :  5080
 total energy-change (2. order) : 0.1811126E+02  (-0.3987635E+03)
 number of electron      10.0000000 magnetization
 augmentation part       10.0000000 magnetization

 Free energy of the ion-electron system (eV)
  alpha Z        PSCENC =         2.79388133
  Ewald energy   TEWEN  =      -165.57476595
  -Hartree energ DENC   =       -57.17311870
  -exchange      EXHF   =         0.00000000
  -V(xc)+E(xc)   XCENC  =       -14.43262992
  PAW double counting   =       180.51565410     -145.34684602
  entropy T*S    EENTRO =         0.00000000
  eigenvalues    EBANDS =       -13.77897702
  atomic energy  EATOM  =       231.10806605
  Solvation  Ediel_sol  =         0.00000000
  free energy    TOTEN  =        18.11126388 eV

  energy without entropy =       18.11126388  energy(sigma->0) =       18.11126388

[...]

 eigenvalue-minimisations  :  6784
 total energy-change (2. order) :-0.3481666E+02  (-0.3388953E+02)
 number of electron      10.0000000 magnetization
 augmentation part       10.0000000 magnetization

[...]

 Broyden mixing:
  rms(total) = 0.67462E+00    rms(broyden)= 0.67460E+00
  rms(prec ) = 0.10112E+01
  weight for this iteration     100.00

[...]

 eigenvalues of (default mixing * dielectric matrix)
  average eigenvalue GAMMA=   2.3136
  2.3136

[...]

 eigenvalue-minimisations  :  5254
 total energy-change (2. order) :-0.2905652E-03  (-0.3825920E-04)
 number of electron      10.0000000 magnetization
 augmentation part       -0.4134769 magnetization

 Broyden mixing:
  rms(total) = 0.19825E-02    rms(broyden)= 0.19825E-02
  rms(prec ) = 0.30654E-02
  weight for this iteration     100.00

 eigenvalues of (default mixing * dielectric matrix)
  average eigenvalue GAMMA=   1.7715
  2.7704  2.7704  1.6435  1.6435  0.9005  0.9005

[...]

--------------------------------------- Iteration      1(  12)  ---------------------------------------

 BZINTS: Fermi energy:  0.637478; 10.000000 electrons
         Band energy: -38.547714;  BLOECHL correction:  0.000000

 eigenvalue-minimisations  :  6316
 total energy-change (2. order) : 0.2155417E-05  (-0.2439723E-05)
 number of electron      10.0000000 magnetization
 augmentation part       -0.4134769 magnetization

 Free energy of the ion-electron system (eV)
  alpha Z        PSCENC =         2.79388133
  Ewald energy   TEWEN  =      -165.57476595
  -Hartree energ DENC   =       -69.29499596
  -exchange      EXHF   =         0.00000000
  -V(xc)+E(xc)   XCENC  =       -12.88850497
  PAW double counting   =       966.84042815     -931.93496254
  entropy T*S    EENTRO =         0.00000000
  eigenvalues    EBANDS =       -38.54771388
  atomic energy  EATOM  =       231.10806605
  Solvation  Ediel_sol  =         0.00000000
  free energy    TOTEN  =       -17.49856777 eV

  energy without entropy =      -17.49856777  energy(sigma->0) =      -17.49856777

 average (electrostatic) potential at core
  the test charge radii are     0.9892  0.5201
  (the norm of the test charge is              1.0000)
       1 -87.7756       2 -87.7753       3 -35.4000       4 -35.3995

 E-fermi :   0.6375     XC(G=0):  -6.9810     alpha+bet : -6.8858

 k-point     1 :       0.0000    0.0000    0.0000
  band No.  band energies     occupation
      1      -9.7184      2.00000
      2      -4.9141      2.00000
      3      -2.2306      2.00000
      4       0.6124      2.00000
      5       0.6124      2.00000
      6       2.9129      0.00000
      7       4.5403      0.00000
      8       4.5403      0.00000
      9       6.3712      0.00000
     10       7.2220      0.00000

[...]

 k-point   254 :      -0.0769   -0.0769    0.3333
  band No.  band energies     occupation
      1      -9.4895      2.00000
      2      -5.1923      2.00000
      3      -1.6942      2.00000
      4      -0.6160      2.00000
      5       0.2198      2.00000
      6       3.7681      0.00000
      7       4.4391      0.00000
      8       5.1422      0.00000
      9       5.6417      0.00000
     10       7.8367      0.00000

 soft charge-density along one line, spin component           1
         0         1         2         3         4         5         6         7         8         9
 total charge-density along one line

------------------------ aborting loop because EDIFF is reached ----------------------------------------

  FORCE on cell =-STRESS in cart. coord.  units (eV):
  Direction    XX          YY          ZZ          XY          YZ          ZX
  Alpha Z     2.79388     2.79388     2.79388
  Ewald     -17.77734   -17.77753  -130.02002    -0.00017    -0.00036     0.00062
  Hartree    48.78038    48.78041   -28.23732     0.00003    -0.00019     0.00034
  E(xc)     -31.07798   -31.07798   -31.33073     0.00000    -0.00000     0.00000
  Local    -138.89538  -138.89522    51.86324     0.00013     0.00056    -0.00097
  n-local    71.41245    71.41239    74.52011    -0.00006    -0.00000     0.00000
  augment   -11.18222   -11.18220   -11.38177     0.00001    -0.00000     0.00000
  Kinetic    75.97822    75.97824    71.83242     0.00001     0.00004    -0.00008
  Fock        0.00000     0.00000     0.00000     0.00000     0.00000     0.00000
  Total       0.03202     0.03199     0.03980    -0.00004     0.00004    -0.00008
  in kB       0.66037     0.65976     0.82085    -0.00076     0.00088    -0.00170

 VOLUME and BASIS-vectors are now :
  energy-cutoff  :      550.00
  volume of cell :       77.68
      direct lattice vectors                 reciprocal lattice vectors
     3.888945790 -0.000000120  0.000019060     0.257139099  0.148459339 -0.000002760
    -1.944473000  3.367925780 -0.000019060     0.000000009  0.296918662  0.000002759
     0.000095480 -0.000055120  5.931102620    -0.000000826  0.000000477  0.168602714

  length of vectors
     3.888945790  3.888945784  5.931102621     0.296918662  0.296918662  0.168602714

 FORCES acting on ions
    electron-ion (+dipol)            ewald-force                    non-local-force                 convergence-correction
   0.341E-03 -.218E-03 -.109E+02   -.245E-03 0.211E-03 0.120E+02   -.100E-03 0.710E-04 -.116E+01   -.502E-06 0.657E-05 -.264E-02
   -.342E-03 0.216E-03 0.109E+02   0.308E-03 -.106E-03 -.120E+02   0.100E-03 -.710E-04 0.116E+01   0.508E-06 -.656E-05 0.265E-02
   0.178E-03 0.258E-03 -.273E+02   -.597E-04 -.366E-04 0.302E+02   -.251E-05 0.131E-05 -.293E+01   -.482E-06 0.138E-05 0.322E-02
   0.142E-03 0.280E-03 0.273E+02   -.274E-05 -.682E-04 -.302E+02   0.251E-05 -.131E-05 0.293E+01   0.465E-06 -.141E-05 -.322E-02
   0.319E-03 0.536E-03 0.201E-02   0.655E-15 -.108E-14 0.000E+00   0.140E-19 0.127E-19 0.000E+00   -.108E-07 -.173E-07 0.106E-04

 POSITION                                       TOTAL-FORCE (eV/Angst)
      0.00001      2.24528      2.84289        -0.000036      0.000019     -0.001931
      1.94448      1.12263      2.12428         0.000036     -0.000019      0.001931
      0.00001      2.24527      4.34349        -0.000013      0.000007      0.006531
      1.94448      1.12263      0.62362         0.000013     -0.000007     -0.006531
    total drift:                                0.000319      0.000536      0.002021

  FREE ENERGIE OF THE ION-ELECTRON SYSTEM (eV)
  free  energy   TOTEN  =       -17.49856777 eV

  energy  without entropy=      -17.49856777  energy(sigma->0) =      -17.49856777

 reached required accuracy - stopping structural energy minimisation
 writing wavefunctions
 BZINTS: Fermi energy:  0.637478; 10.000000 electrons
         Band energy: -38.547714;  BLOECHL correction:  0.000000